<?xml version="1.0"?>
<VTKFile type="UnstructuredGrid" version="0.1" byte_order="LittleEndian">
  <UnstructuredGrid>
    <Piece NumberOfPoints="240" NumberOfCells="309">
      <PointData>
        <DataArray type="Float64" Name="displacement" NumberOfComponents="3" format="ascii">
 -8.7546154E-032  1.6589031E-036 -8.7546154E-032 -8.7546154E-032 -8.4615218E-032 -8.7546154E-032  1.7163649E-036  1.6589031E-036  1.7163649E-036 -8.7546154E-032  1.6589031E-036 -8.7546154E-032 -1.6169636E-008 -4.9409093E-008 -1.2102728E-011 -1.6169636E-008 -4.9409093E-008  1.2102739E-011  1.6169636E-008 -4.9409093E-008  1.2102739E-011  1.6169636E-008 -4.9409093E-008 -1.2102728E-011 -6.1904479E-032 -5.9831994E-032 -6.1904479E-032 -6.1904479E-032 -5.9831994E-032 -6.1904479E-032 -6.1904479E-032 -5.9831994E-032 -6.1904479E-032 -6.1904479E-032 -5.9831994E-032 -6.1904479E-032  1.2136522E-036  1.1730206E-036  1.2136533E-036  1.2136522E-036  1.1730206E-036  1.2136533E-036 -6.1904479E-032  1.1730216E-036 -6.1904479E-032 -6.1904479E-032 -5.9831994E-032 -6.1904479E-032 -6.1904479E-032 -5.9831994E-032 -6.1904479E-032 -6.1904479E-032 -5.9831994E-032 -6.1904479E-032  1.2136522E-036  1.1730206E-036  1.2136533E-036  1.2136522E-036 -5.9831942E-032  1.2136533E-036 -3.5703750E-009 -1.6793534E-009 -5.8404165E-010 -6.4508435E-009 -4.5390434E-009 -5.6628097E-010 -8.9842764E-009 -8.6424017E-009 -4.9175768E-010 -1.1148912E-008 -1.3791684E-008 -4.0496762E-010 -1.2923048E-008 -1.9817780E-008 -3.2326570E-010 -1.4302803E-008 -2.6542498E-008 -2.4322998E-010 -1.5294170E-008 -3.3788641E-008 -1.6539547E-010 -1.5925602E-008 -4.1401482E-008 -8.3491380E-011 -1.6210857E-008 -4.9431649E-008  4.7270975E-012 -1.6210857E-008 -4.9431649E-008 -4.7270861E-012 -3.5703750E-009 -1.6793534E-009  5.8404166E-010 -6.4508435E-009 -4.5390434E-009  5.6628097E-010 -8.9842765E-009 -8.6424017E-009  4.9175768E-010 -1.1148912E-008 -1.3791684E-008  4.0496762E-010 -1.2923048E-008 -1.9817780E-008  3.2326571E-010 -1.4302803E-008 -2.6542498E-008  2.4322998E-010 -1.5294170E-008 -3.3788641E-008  1.6539548E-010 -1.5925602E-008 -4.1401482E-008  8.3491390E-011 -9.3271959E-009 -4.9260503E-008  1.4663628E-011 -3.0442154E-009 -4.9063557E-008  1.3200531E-011  3.0442154E-009 -4.9063557E-008 -1.3200519E-011  9.3271959E-009 -4.9260503E-008 -1.4663617E-011  1.6210857E-008 -4.9431649E-008 -4.7270861E-012  1.6210857E-008 -4.9431649E-008  4.7270975E-012 -9.3271959E-009 -4.9260503E-008 -1.4663617E-011 -3.0442154E-009 -4.9063557E-008 -1.3200519E-011  3.0442154E-009 -4.9063557E-008  1.3200531E-011  9.3271959E-009 -4.9260503E-008  1.4663628E-011  1.5925602E-008 -4.1401482E-008  8.3491390E-011  1.5294170E-008 -3.3788641E-008  1.6539548E-010  1.4302803E-008 -2.6542498E-008  2.4322998E-010  1.2923048E-008 -1.9817780E-008  3.2326571E-010  1.1148912E-008 -1.3791684E-008  4.0496762E-010  8.9842765E-009 -8.6424017E-009  4.9175768E-010  6.4508435E-009 -4.5390434E-009  5.6628097E-010  3.5703750E-009 -1.6793534E-009  5.8404166E-010  1.5925602E-008 -4.1401482E-008 -8.3491380E-011  1.5294170E-008 -3.3788641E-008 -1.6539547E-010  1.4302803E-008 -2.6542498E-008 -2.4322998E-010  1.2923048E-008 -1.9817780E-008 -3.2326570E-010  1.1148912E-008 -1.3791684E-008 -4.0496762E-010  8.9842764E-009 -8.6424017E-009 -4.9175768E-010  6.4508435E-009 -4.5390434E-009 -5.6628097E-010  3.5703750E-009 -1.6793534E-009 -5.8404165E-010  8.5818172E-037  8.2945083E-037  8.5818248E-037  8.5818172E-037  8.2945083E-037  8.5818248E-037  8.5818172E-037  8.2945083E-037  8.5818248E-037  8.5818172E-037  8.2945083E-037  8.5818248E-037  8.5818172E-037  8.2945083E-037  8.5818248E-037  8.5818172E-037  8.2945083E-037  8.5818248E-037  8.5818172E-037  8.2945083E-037  8.5818248E-037  8.5818172E-037  8.2945083E-037  8.5818248E-037 -3.4742395E-009 -1.8193135E-009 -1.5646863E-010 -3.4742395E-009 -1.8193135E-009  1.5646863E-010 -6.4529014E-009 -4.7014291E-009 -1.9781925E-010 -6.4529014E-009 -4.7014291E-009  1.9781925E-010 -9.0197272E-009 -8.7837820E-009 -1.6513420E-010 -9.0197272E-009 -8.7837820E-009  1.6513420E-010 -1.1188003E-008 -1.3909344E-008 -1.3605844E-010 -1.1188003E-008 -1.3909344E-008  1.3605845E-010 -1.2961114E-008 -1.9911744E-008 -1.0823607E-010 -1.2961114E-008 -1.9911744E-008  1.0823608E-010 -1.4340449E-008 -2.6613525E-008 -8.1639505E-011 -1.4340449E-008 -2.6613525E-008  8.1639512E-011 -1.5332930E-008 -3.3837884E-008 -5.4901225E-011 -1.5332930E-008 -3.3837884E-008  5.4901234E-011 -1.5965942E-008 -4.1431158E-008 -2.7982276E-011 -1.5965942E-008 -4.1431158E-008  2.7982286E-011 -9.3626734E-009 -4.9279451E-008  3.1915385E-012 -9.3626734E-009 -4.9279451E-008 -3.1915271E-012 -3.0585597E-009 -4.9075312E-008  2.7938115E-012 -3.0585597E-009 -4.9075312E-008 -2.7938001E-012  3.0585597E-009 -4.9075312E-008 -2.7938001E-012  3.0585597E-009 -4.9075312E-008  2.7938115E-012  9.3626734E-009 -4.9279451E-008 -3.1915271E-012  9.3626734E-009 -4.9279451E-008  3.1915385E-012  1.5965942E-008 -4.1431158E-008  2.7982286E-011  1.5965942E-008 -4.1431158E-008 -2.7982276E-011  1.5332930E-008 -3.3837884E-008  5.4901234E-011  1.5332930E-008 -3.3837884E-008 -5.4901225E-011  1.4340449E-008 -2.6613525E-008  8.1639512E-011  1.4340449E-008 -2.6613525E-008 -8.1639505E-011  1.2961114E-008 -1.9911744E-008  1.0823608E-010  1.2961114E-008 -1.9911744E-008 -1.0823607E-010  1.1188003E-008 -1.3909344E-008  1.3605845E-010  1.1188003E-008 -1.3909344E-008 -1.3605844E-010  9.0197272E-009 -8.7837820E-009  1.6513420E-010  9.0197272E-009 -8.7837820E-009 -1.6513420E-010  6.4529014E-009 -4.7014291E-009  1.9781925E-010  6.4529014E-009 -4.7014291E-009 -1.9781925E-010  3.4742395E-009 -1.8193135E-009  1.5646863E-010  3.4742395E-009 -1.8193135E-009 -1.5646863E-010  1.8632913E-009 -1.3456611E-009 -3.5441434E-010  3.5889354E-009 -4.2681168E-009 -3.5462478E-010  5.1094417E-009 -8.4006422E-009 -3.0300204E-010  6.4095588E-009 -1.3591054E-008 -2.4876534E-010  7.4745903E-009 -1.9657234E-008 -1.9838022E-010  8.3024848E-009 -2.6423322E-008 -1.4912097E-010  8.8887243E-009 -3.3713495E-008 -9.8854520E-011  9.2157751E-009 -4.1369631E-008 -4.3299670E-011  5.9583915E-010 -1.2564320E-009 -1.1790742E-010  1.1468794E-009 -4.1234606E-009 -1.1912592E-010  1.6569066E-009 -8.2782479E-009 -1.0205253E-010  2.0906542E-009 -1.3489468E-008 -8.3284334E-011  2.4459007E-009 -1.9576437E-008 -6.6403304E-011  2.7212791E-009 -2.6364870E-008 -4.9770087E-011  2.9117636E-009 -3.3685294E-008 -3.2336128E-011  3.0094278E-009 -4.1359980E-008 -1.2005214E-011 -5.9583915E-010 -1.2564320E-009  1.1790742E-010 -1.1468794E-009 -4.1234606E-009  1.1912592E-010 -1.6569066E-009 -8.2782479E-009  1.0205253E-010 -2.0906542E-009 -1.3489468E-008  8.3284337E-011 -2.4459007E-009 -1.9576437E-008  6.6403309E-011 -2.7212791E-009 -2.6364870E-008  4.9770094E-011 -2.9117636E-009 -3.3685294E-008  3.2336136E-011 -3.0094278E-009 -4.1359980E-008  1.2005224E-011 -1.8632913E-009 -1.3456611E-009  3.5441434E-010 -3.5889354E-009 -4.2681168E-009  3.5462478E-010 -5.1094417E-009 -8.4006422E-009  3.0300204E-010 -6.4095589E-009 -1.3591054E-008  2.4876534E-010 -7.4745903E-009 -1.9657234E-008  1.9838022E-010 -8.3024848E-009 -2.6423322E-008  1.4912098E-010 -8.8887243E-009 -3.3713495E-008  9.8854528E-011 -9.2157751E-009 -4.1369631E-008  4.3299680E-011 -1.8632913E-009 -1.3456611E-009 -3.5441434E-010 -3.5889354E-009 -4.2681168E-009 -3.5462478E-010 -5.1094417E-009 -8.4006422E-009 -3.0300204E-010 -6.4095588E-009 -1.3591054E-008 -2.4876534E-010 -7.4745903E-009 -1.9657234E-008 -1.9838022E-010 -8.3024848E-009 -2.6423322E-008 -1.4912097E-010 -8.8887243E-009 -3.3713495E-008 -9.8854520E-011 -9.2157751E-009 -4.1369631E-008 -4.3299670E-011 -5.9583915E-010 -1.2564320E-009 -1.1790742E-010 -1.1468794E-009 -4.1234606E-009 -1.1912592E-010 -1.6569066E-009 -8.2782479E-009 -1.0205253E-010 -2.0906542E-009 -1.3489468E-008 -8.3284334E-011 -2.4459007E-009 -1.9576437E-008 -6.6403304E-011 -2.7212791E-009 -2.6364870E-008 -4.9770087E-011 -2.9117636E-009 -3.3685294E-008 -3.2336128E-011 -3.0094278E-009 -4.1359980E-008 -1.2005214E-011  5.9583915E-010 -1.2564320E-009  1.1790742E-010  1.1468794E-009 -4.1234606E-009  1.1912592E-010  1.6569066E-009 -8.2782479E-009  1.0205253E-010  2.0906542E-009 -1.3489468E-008  8.3284337E-011  2.4459007E-009 -1.9576437E-008  6.6403309E-011  2.7212791E-009 -2.6364870E-008  4.9770094E-011  2.9117636E-009 -3.3685294E-008  3.2336136E-011  3.0094278E-009 -4.1359980E-008  1.2005224E-011  1.8632913E-009 -1.3456611E-009  3.5441434E-010  3.5889354E-009 -4.2681168E-009  3.5462478E-010  5.1094417E-009 -8.4006422E-009  3.0300204E-010  6.4095589E-009 -1.3591054E-008  2.4876534E-010  7.4745903E-009 -1.9657234E-008  1.9838022E-010  8.3024848E-009 -2.6423322E-008  1.4912098E-010  8.8887243E-009 -3.3713495E-008  9.8854528E-011  9.2157751E-009 -4.1369631E-008  4.3299680E-011 -1.7788806E-009 -1.4819658E-009 -9.6543440E-011 -3.5887033E-009 -4.4266105E-009 -1.2275741E-010 -5.1400854E-009 -8.5441220E-009 -1.0125313E-010 -6.4428646E-009 -1.3710767E-008 -8.2723353E-011 -7.5069776E-009 -1.9752825E-008 -6.5773699E-011 -8.3346394E-009 -2.6495308E-008 -4.9476597E-011 -8.9219402E-009 -3.3762388E-008 -3.2721734E-011 -9.2501745E-009 -4.1396327E-008 -1.4638726E-011 -1.7788806E-009 -1.4819658E-009  9.6543440E-011 -3.5887033E-009 -4.4266105E-009  1.2275741E-010 -5.1400854E-009 -8.5441220E-009  1.0125313E-010 -6.4428646E-009 -1.3710767E-008  8.2723356E-011 -7.5069776E-009 -1.9752825E-008  6.5773704E-011 -8.3346394E-009 -2.6495308E-008  4.9476604E-011 -8.9219402E-009 -3.3762388E-008  3.2721742E-011 -9.2501745E-009 -4.1396327E-008  1.4638736E-011 -5.6863280E-010 -1.3949691E-009 -3.2463870E-011 -1.1459267E-009 -4.2839787E-009 -4.1926795E-011 -1.6672230E-009 -8.4247864E-009 -3.4460420E-011 -2.1021105E-009 -1.3611839E-008 -2.7992779E-011 -2.4569719E-009 -1.9673988E-008 -2.2229927E-011 -2.7323747E-009 -2.6437979E-008 -1.6684826E-011 -2.9234482E-009 -3.3733524E-008 -1.0834355E-011 -3.0223472E-009 -4.1381460E-008 -4.1016875E-012 -5.6863280E-010 -1.3949691E-009  3.2463870E-011 -1.1459267E-009 -4.2839787E-009  4.1926796E-011 -1.6672230E-009 -8.4247864E-009  3.4460422E-011 -2.1021105E-009 -1.3611839E-008  2.7992783E-011 -2.4569719E-009 -1.9673988E-008  2.2229932E-011 -2.7323747E-009 -2.6437979E-008  1.6684833E-011 -2.9234482E-009 -3.3733524E-008  1.0834363E-011 -3.0223472E-009 -4.1381460E-008  4.1016974E-012  5.6863280E-010 -1.3949691E-009  3.2463870E-011  1.1459267E-009 -4.2839787E-009  4.1926796E-011  1.6672230E-009 -8.4247864E-009  3.4460422E-011  2.1021105E-009 -1.3611839E-008  2.7992783E-011  2.4569719E-009 -1.9673988E-008  2.2229932E-011  2.7323747E-009 -2.6437979E-008  1.6684833E-011  2.9234482E-009 -3.3733524E-008  1.0834363E-011  3.0223472E-009 -4.1381460E-008  4.1016974E-012  5.6863280E-010 -1.3949691E-009 -3.2463870E-011  1.1459267E-009 -4.2839787E-009 -4.1926795E-011  1.6672230E-009 -8.4247864E-009 -3.4460420E-011  2.1021105E-009 -1.3611839E-008 -2.7992779E-011  2.4569719E-009 -1.9673988E-008 -2.2229927E-011  2.7323747E-009 -2.6437979E-008 -1.6684826E-011  2.9234482E-009 -3.3733524E-008 -1.0834355E-011  3.0223472E-009 -4.1381460E-008 -4.1016875E-012  1.7788806E-009 -1.4819658E-009  9.6543440E-011  3.5887033E-009 -4.4266105E-009  1.2275741E-010  5.1400854E-009 -8.5441220E-009  1.0125313E-010  6.4428646E-009 -1.3710767E-008  8.2723356E-011  7.5069776E-009 -1.9752825E-008  6.5773704E-011  8.3346394E-009 -2.6495308E-008  4.9476604E-011  8.9219402E-009 -3.3762388E-008  3.2721742E-011  9.2501745E-009 -4.1396327E-008  1.4638736E-011  1.7788806E-009 -1.4819658E-009 -9.6543440E-011  3.5887033E-009 -4.4266105E-009 -1.2275741E-010  5.1400854E-009 -8.5441220E-009 -1.0125313E-010  6.4428646E-009 -1.3710767E-008 -8.2723353E-011  7.5069776E-009 -1.9752825E-008 -6.5773699E-011  8.3346394E-009 -2.6495308E-008 -4.9476597E-011  8.9219402E-009 -3.3762388E-008 -3.2721734E-011  9.2501745E-009 -4.1396327E-008 -1.4638726E-011
        </DataArray>
        <DataArray type="Float64" Name="stress" NumberOfComponents="6" format="ascii">
  6.4728739E+003  1.0545990E+003  1.0545990E+003 -1.0413379E+003  1.1069372E-008  5.3770394E+002 -6.4728739E+003 -1.0545990E+003 -1.0545990E+003 -1.0413379E+003  1.1049001E-008 -5.3770394E+002 -6.4728739E+003 -1.0545990E+003 -1.0545990E+003 -1.0413379E+003 -1.0408146E-008  5.3770394E+002  6.4728739E+003  1.0545990E+003  1.0545990E+003 -1.0413379E+003 -1.0387855E-008 -5.3770394E+002 -2.3636766E+002  1.9825989E+002  5.7114415E+000 -2.4810645E+002  6.3152089E+000  1.3605611E+001 -2.3636766E+002  1.9825989E+002  5.7114415E+000 -2.4810645E+002 -6.3152089E+000 -1.3605611E+001  2.3636766E+002 -1.9825989E+002 -5.7114415E+000 -2.4810645E+002  6.3152089E+000 -1.3605611E+001  2.3636766E+002 -1.9825989E+002 -5.7114415E+000 -2.4810645E+002 -6.3152089E+000  1.3605611E+001  3.2725081E+003  5.3317639E+002  5.3317639E+002 -7.2039269E+002 -7.6502847E-009  3.2318956E+002  1.0500675E+003  1.7108321E+002  1.7108321E+002 -6.5318048E+002  1.3523977E-009  1.0725555E+002 -1.0500675E+003 -1.7108321E+002 -1.7108321E+002 -6.5318048E+002  1.3461989E-009 -1.0725555E+002 -3.2725081E+003 -5.3317639E+002 -5.3317639E+002 -7.2039269E+002 -7.6670701E-009 -3.2318956E+002 -6.2089745E+003 -1.0116029E+003 -1.0116029E+003 -1.1634482E+003  1.0727284E-008  1.3193450E+002 -6.2089745E+003 -1.0116029E+003 -1.0116029E+003 -1.1634482E+003 -1.0086913E-008 -1.3193450E+002  3.2725081E+003  5.3317639E+002  5.3317639E+002 -7.2039269E+002  8.3283276E-009 -3.2318956E+002  1.0500675E+003  1.7108321E+002  1.7108321E+002 -6.5318048E+002 -6.8497807E-010 -1.0725555E+002 -1.0500675E+003 -1.7108321E+002 -1.7108321E+002 -6.5318048E+002 -6.9118659E-010  1.0725555E+002 -3.2725081E+003 -5.3317639E+002 -5.3317639E+002 -7.2039269E+002  8.3115763E-009  3.2318956E+002  6.2089745E+003  1.0116029E+003  1.0116029E+003 -1.1634482E+003  1.0748078E-008 -1.3193450E+002  6.2089745E+003  1.0116029E+003  1.0116029E+003 -1.1634482E+003 -1.0066234E-008  1.3193450E+002 -5.3579706E+003 -2.5768365E+001  1.5936424E+001 -1.0426459E+002  6.1664698E+001 -1.1153303E+002 -4.4123117E+003 -7.8216817E+001 -3.4832545E+001 -1.6284419E+002  2.4194143E+001  8.4719809E+001 -3.9255427E+003 -6.2812654E+001 -2.0689405E+001 -1.7177732E+002  2.6610479E+001  1.9065969E+001 -3.2641749E+003 -5.3709837E+001 -2.1948971E+001 -1.7185813E+002  2.1511907E+001  3.0751203E+001 -2.6193385E+003 -4.3826775E+001 -1.8342334E+001 -1.7178481E+002  1.7360408E+001  2.4441959E+001 -1.9555301E+003 -3.3030132E+001 -1.2330085E+001 -1.7369616E+002  1.2881627E+001  2.4066117E+001 -1.3616311E+003 -3.4483170E+001 -1.2506574E+001 -1.4450200E+002  1.0633699E+001  2.4852941E+001 -6.8596946E+002 -2.8994928E+001 -8.6304826E+000 -1.7756577E+002  7.9815622E+000  2.1253083E+001 -2.3624207E+002  2.0305450E+002  9.8376414E+000 -2.4345931E+002  1.9864276E+000  1.7825035E+000 -2.3624207E+002  2.0305450E+002  9.8376414E+000 -2.4345931E+002 -1.9864276E+000 -1.7825035E+000 -5.3579706E+003 -2.5768365E+001  1.5936424E+001 -1.0426459E+002 -6.1664698E+001  1.1153303E+002 -4.4123117E+003 -7.8216817E+001 -3.4832545E+001 -1.6284419E+002 -2.4194143E+001 -8.4719809E+001 -3.9255427E+003 -6.2812654E+001 -2.0689405E+001 -1.7177732E+002 -2.6610479E+001 -1.9065969E+001 -3.2641749E+003 -5.3709837E+001 -2.1948971E+001 -1.7185813E+002 -2.1511907E+001 -3.0751203E+001 -2.6193385E+003 -4.3826775E+001 -1.8342334E+001 -1.7178481E+002 -1.7360408E+001 -2.4441959E+001 -1.9555301E+003 -3.3030132E+001 -1.2330085E+001 -1.7369616E+002 -1.2881627E+001 -2.4066117E+001 -1.3616311E+003 -3.4483170E+001 -1.2506574E+001 -1.4450200E+002 -1.0633699E+001 -2.4852941E+001 -6.8596946E+002 -2.8994929E+001 -8.6304826E+000 -1.7756577E+002 -7.9815622E+000 -2.1253083E+001 -6.1436249E+001  3.5189100E+002  1.8918070E+001 -4.5847987E+002 -3.6754718E+000  1.1365974E+001 -2.3545487E+000  2.4419437E+002  1.4017535E+001 -6.5751451E+002 -2.6262655E+001  6.6021085E+000  2.3545488E+000 -2.4419437E+002 -1.4017535E+001 -6.5751451E+002 -2.6262655E+001 -6.6021085E+000  6.1436249E+001 -3.5189100E+002 -1.8918070E+001 -4.5847987E+002 -3.6754718E+000 -1.1365974E+001  2.3624207E+002 -2.0305450E+002 -9.8376414E+000 -2.4345931E+002  1.9864276E+000 -1.7825035E+000  2.3624207E+002 -2.0305450E+002 -9.8376414E+000 -2.4345931E+002 -1.9864276E+000  1.7825035E+000 -6.1436249E+001  3.5189100E+002  1.8918070E+001 -4.5847987E+002  3.6754718E+000 -1.1365974E+001 -2.3545487E+000  2.4419437E+002  1.4017535E+001 -6.5751451E+002  2.6262655E+001 -6.6021085E+000  2.3545488E+000 -2.4419437E+002 -1.4017535E+001 -6.5751451E+002  2.6262655E+001  6.6021085E+000  6.1436249E+001 -3.5189100E+002 -1.8918070E+001 -4.5847987E+002  3.6754718E+000  1.1365974E+001  6.8596946E+002  2.8994929E+001  8.6304826E+000 -1.7756577E+002  7.9815622E+000 -2.1253083E+001  1.3616311E+003  3.4483170E+001  1.2506574E+001 -1.4450200E+002  1.0633699E+001 -2.4852941E+001  1.9555301E+003  3.3030132E+001  1.2330085E+001 -1.7369616E+002  1.2881627E+001 -2.4066117E+001  2.6193385E+003  4.3826775E+001  1.8342334E+001 -1.7178481E+002  1.7360408E+001 -2.4441959E+001  3.2641749E+003  5.3709837E+001  2.1948971E+001 -1.7185813E+002  2.1511907E+001 -3.0751203E+001  3.9255427E+003  6.2812654E+001  2.0689405E+001 -1.7177732E+002  2.6610479E+001 -1.9065969E+001  4.4123117E+003  7.8216817E+001  3.4832545E+001 -1.6284419E+002  2.4194143E+001 -8.4719809E+001  5.3579706E+003  2.5768365E+001 -1.5936424E+001 -1.0426459E+002  6.1664698E+001  1.1153303E+002  6.8596946E+002  2.8994928E+001  8.6304826E+000 -1.7756577E+002 -7.9815622E+000  2.1253083E+001  1.3616311E+003  3.4483170E+001  1.2506574E+001 -1.4450200E+002 -1.0633699E+001  2.4852941E+001  1.9555301E+003  3.3030132E+001  1.2330085E+001 -1.7369616E+002 -1.2881627E+001  2.4066117E+001  2.6193385E+003  4.3826775E+001  1.8342334E+001 -1.7178481E+002 -1.7360408E+001  2.4441959E+001  3.2641749E+003  5.3709837E+001  2.1948971E+001 -1.7185813E+002 -2.1511907E+001  3.0751203E+001  3.9255427E+003  6.2812654E+001  2.0689405E+001 -1.7177732E+002 -2.6610479E+001  1.9065969E+001  4.4123117E+003  7.8216817E+001  3.4832545E+001 -1.6284419E+002 -2.4194143E+001  8.4719809E+001  5.3579706E+003  2.5768365E+001 -1.5936424E+001 -1.0426459E+002 -6.1664698E+001 -1.1153303E+002  3.0422617E+003  4.9566329E+002  4.9566329E+002 -8.3959522E+002  8.4226114E-009  8.1156082E+001  3.0422617E+003  4.9566329E+002  4.9566329E+002 -8.3959522E+002 -7.7447817E-009 -8.1156082E+001  9.7656841E+002  1.5910831E+002  1.5910831E+002 -7.7455975E+002 -2.7823295E-009  2.7118402E+001  9.7656841E+002  1.5910831E+002  1.5910831E+002 -7.7455975E+002  3.4499301E-009 -2.7118402E+001 -9.7656841E+002 -1.5910831E+002 -1.5910831E+002 -7.7455975E+002 -2.7887183E-009 -2.7118402E+001 -9.7656841E+002 -1.5910831E+002 -1.5910831E+002 -7.7455975E+002  3.4434683E-009  2.7118402E+001 -3.0422617E+003 -4.9566329E+002 -4.9566329E+002 -8.3959522E+002  8.4059277E-009 -8.1156082E+001 -3.0422617E+003 -4.9566329E+002 -4.9566329E+002 -8.3959522E+002 -7.7613689E-009  8.1156082E+001 -5.4167554E+003 -5.2460627E+001 -1.8559793E+002 -1.6377968E+002 -1.3463389E+001 -3.4703926E+001 -5.4167554E+003 -5.2460627E+001 -1.8559793E+002 -1.6377968E+002  1.3463389E+001  3.4703926E+001 -4.5651214E+003 -8.6280726E+001 -1.2436625E+001 -1.5094426E+002 -1.1219982E+001  6.8103023E+000 -4.5651214E+003 -8.6280726E+001 -1.2436625E+001 -1.5094426E+002  1.1219982E+001 -6.8103022E+000 -3.9320312E+003 -6.6168926E+001 -1.6044827E+001 -1.5372462E+002 -1.0527041E+001  1.1433632E+001 -3.9320312E+003 -6.6168926E+001 -1.6044827E+001 -1.5372462E+002  1.0527041E+001 -1.1433632E+001 -3.2661414E+003 -5.6560315E+001 -1.7322366E+001 -1.5351866E+002 -8.4341950E+000  2.2143507E+000 -3.2661414E+003 -5.6560315E+001 -1.7322366E+001 -1.5351866E+002  8.4341950E+000 -2.2143505E+000 -2.6167012E+003 -4.5748264E+001 -1.5858887E+001 -1.5351774E+002 -6.8406024E+000  3.4697915E+000 -2.6167012E+003 -4.5748264E+001 -1.5858887E+001 -1.5351774E+002  6.8406024E+000 -3.4697913E+000 -1.9562142E+003 -3.4349513E+001 -9.8202676E+000 -1.5656018E+002 -5.0848350E+000  2.6570712E+000 -1.9562142E+003 -3.4349513E+001 -9.8202676E+000 -1.5656018E+002  5.0848350E+000 -2.6570711E+000 -1.3644754E+003 -3.4674182E+001 -1.4076794E+001 -1.2738504E+002 -3.5063328E+000  2.9872882E+000 -1.3644754E+003 -3.4674182E+001 -1.4076794E+001 -1.2738504E+002  3.5063328E+000 -2.9872881E+000 -6.8740032E+002 -2.5151529E+001 -7.5399080E+000 -1.6607976E+002 -1.7148648E+000  7.3514527E-001 -6.8740032E+002 -2.5151529E+001 -7.5399080E+000 -1.6607976E+002  1.7148648E+000 -7.3514527E-001 -5.9872539E+001  3.6506540E+002  2.9397897E+001 -4.4534411E+002 -4.7587753E+000 -2.6139063E+000 -5.9872539E+001  3.6506540E+002  2.9397897E+001 -4.4534411E+002  4.7587753E+000  2.6139063E+000 -1.8814490E+000  2.5498580E+002  2.3564384E+001 -6.3183127E+002 -8.7052524E+000 -1.2494637E+000 -1.8814490E+000  2.5498580E+002  2.3564384E+001 -6.3183127E+002  8.7052524E+000  1.2494637E+000  1.8814491E+000 -2.5498580E+002 -2.3564384E+001 -6.3183127E+002 -8.7052524E+000  1.2494637E+000  1.8814491E+000 -2.5498580E+002 -2.3564384E+001 -6.3183127E+002  8.7052524E+000 -1.2494637E+000  5.9872539E+001 -3.6506540E+002 -2.9397897E+001 -4.4534411E+002 -4.7587753E+000  2.6139063E+000  5.9872539E+001 -3.6506540E+002 -2.9397897E+001 -4.4534411E+002  4.7587753E+000 -2.6139063E+000  6.8740032E+002  2.5151529E+001  7.5399080E+000 -1.6607976E+002 -1.7148648E+000 -7.3514527E-001  6.8740032E+002  2.5151529E+001  7.5399080E+000 -1.6607976E+002  1.7148648E+000  7.3514527E-001  1.3644754E+003  3.4674182E+001  1.4076794E+001 -1.2738504E+002 -3.5063328E+000 -2.9872881E+000  1.3644754E+003  3.4674182E+001  1.4076794E+001 -1.2738504E+002  3.5063328E+000  2.9872882E+000  1.9562142E+003  3.4349513E+001  9.8202676E+000 -1.5656018E+002 -5.0848350E+000 -2.6570711E+000  1.9562142E+003  3.4349513E+001  9.8202676E+000 -1.5656018E+002  5.0848350E+000  2.6570712E+000  2.6167012E+003  4.5748264E+001  1.5858887E+001 -1.5351774E+002 -6.8406024E+000 -3.4697913E+000  2.6167012E+003  4.5748264E+001  1.5858887E+001 -1.5351774E+002  6.8406024E+000  3.4697915E+000  3.2661414E+003  5.6560315E+001  1.7322366E+001 -1.5351866E+002 -8.4341950E+000 -2.2143505E+000  3.2661414E+003  5.6560315E+001  1.7322366E+001 -1.5351866E+002  8.4341950E+000  2.2143507E+000  3.9320312E+003  6.6168926E+001  1.6044827E+001 -1.5372462E+002 -1.0527041E+001 -1.1433632E+001  3.9320312E+003  6.6168926E+001  1.6044827E+001 -1.5372462E+002  1.0527041E+001  1.1433632E+001  4.5651214E+003  8.6280726E+001  1.2436625E+001 -1.5094426E+002 -1.1219982E+001 -6.8103022E+000  4.5651214E+003  8.6280726E+001  1.2436625E+001 -1.5094426E+002  1.1219982E+001  6.8103023E+000  5.4167554E+003  5.2460627E+001  1.8559793E+002 -1.6377968E+002 -1.3463389E+001  3.4703926E+001  5.4167554E+003  5.2460627E+001  1.8559793E+002 -1.6377968E+002  1.3463389E+001 -3.4703926E+001  2.9941053E+003  1.9944814E+001 -3.9841619E+001 -2.9337353E+002 -6.9533111E+001 -5.1204074E+001  2.6884073E+003 -2.7425365E+001 -3.0784857E+000 -4.7484725E+002 -4.2694367E+001  5.0533675E+001  2.3299812E+003 -2.7479219E+001 -1.0603919E+001 -4.3254660E+002 -3.2128812E+001  8.5149917E+000  1.9549572E+003 -1.9109683E+001 -3.6745658E+000 -4.5251926E+002 -2.5602892E+001  1.0259291E+001  1.5621599E+003 -1.5053462E+001 -3.1056277E+000 -4.4739456E+002 -2.0437130E+001  7.2722149E+000  1.1717655E+003 -7.6673693E+000 -2.0577574E+000 -4.4718003E+002 -1.5460901E+001  7.7305061E+000  7.5861508E+002  7.8290225E+000 -2.3549705E+000 -4.3948998E+002 -1.1328870E+001  9.3144216E+000  3.2687045E+002  6.8340841E+000 -3.0048378E-001 -4.4570570E+002 -6.3103119E+000  1.1690439E+001  9.6537835E+002  1.0220351E+002 -3.0248556E+000 -4.7684928E+002 -7.0157816E+001 -1.8324543E+001  8.7975730E+002 -8.2359257E+000 -1.8846385E+000 -7.4843085E+002 -5.3226478E+001  1.6922491E+001  7.8774697E+002  2.9300891E+000 -2.6069888E-001 -7.3196958E+002 -3.6906646E+001  3.1413520E+000  6.5144141E+002  2.1948247E+000  5.2961883E-001 -7.4094328E+002 -2.8084262E+001  3.4361203E+000  5.2277780E+002  2.7237131E+000  7.3778410E-001 -7.3854470E+002 -2.2394925E+001  2.1802187E+000  3.8874045E+002  4.3251032E+000  5.1711130E-001 -7.3802259E+002 -1.6912698E+001  2.5918906E+000  2.3844997E+002  1.4293167E+001 -5.2921939E-002 -7.6600799E+002 -1.0678189E+001  3.1425788E+000  9.7065315E+001  9.1160806E+000  1.9724148E+000 -7.3332531E+002 -2.1362668E+000  5.4249205E+000 -9.6537835E+002 -1.0220351E+002  3.0248556E+000 -4.7684928E+002 -7.0157816E+001  1.8324543E+001 -8.7975730E+002  8.2359257E+000  1.8846385E+000 -7.4843085E+002 -5.3226478E+001 -1.6922491E+001 -7.8774697E+002 -2.9300891E+000  2.6069886E-001 -7.3196958E+002 -3.6906646E+001 -3.1413519E+000 -6.5144141E+002 -2.1948247E+000 -5.2961884E-001 -7.4094328E+002 -2.8084262E+001 -3.4361202E+000 -5.2277780E+002 -2.7237131E+000 -7.3778410E-001 -7.3854470E+002 -2.2394925E+001 -2.1802186E+000 -3.8874045E+002 -4.3251032E+000 -5.1711130E-001 -7.3802259E+002 -1.6912698E+001 -2.5918905E+000 -2.3844997E+002 -1.4293166E+001  5.2921945E-002 -7.6600799E+002 -1.0678189E+001 -3.1425788E+000 -9.7065315E+001 -9.1160806E+000 -1.9724148E+000 -7.3332531E+002 -2.1362668E+000 -5.4249205E+000 -2.9941053E+003 -1.9944814E+001  3.9841619E+001 -2.9337353E+002 -6.9533111E+001  5.1204074E+001 -2.6884073E+003  2.7425365E+001  3.0784857E+000 -4.7484725E+002 -4.2694367E+001 -5.0533675E+001 -2.3299812E+003  2.7479219E+001  1.0603919E+001 -4.3254660E+002 -3.2128812E+001 -8.5149917E+000 -1.9549572E+003  1.9109683E+001  3.6745658E+000 -4.5251926E+002 -2.5602892E+001 -1.0259290E+001 -1.5621599E+003  1.5053462E+001  3.1056277E+000 -4.4739456E+002 -2.0437130E+001 -7.2722149E+000 -1.1717655E+003  7.6673693E+000  2.0577574E+000 -4.4718003E+002 -1.5460901E+001 -7.7305060E+000 -7.5861508E+002 -7.8290225E+000  2.3549705E+000 -4.3948998E+002 -1.1328870E+001 -9.3144216E+000 -3.2687045E+002 -6.8340840E+000  3.0048378E-001 -4.4570570E+002 -6.3103119E+000 -1.1690439E+001 -2.9941053E+003 -1.9944814E+001  3.9841619E+001 -2.9337353E+002  6.9533111E+001 -5.1204074E+001 -2.6884073E+003  2.7425365E+001  3.0784857E+000 -4.7484725E+002  4.2694367E+001  5.0533675E+001 -2.3299812E+003  2.7479219E+001  1.0603919E+001 -4.3254660E+002  3.2128812E+001  8.5149917E+000 -1.9549572E+003  1.9109683E+001  3.6745658E+000 -4.5251926E+002  2.5602892E+001  1.0259291E+001 -1.5621599E+003  1.5053462E+001  3.1056277E+000 -4.4739456E+002  2.0437130E+001  7.2722149E+000 -1.1717655E+003  7.6673693E+000  2.0577574E+000 -4.4718003E+002  1.5460901E+001  7.7305061E+000 -7.5861508E+002 -7.8290225E+000  2.3549705E+000 -4.3948998E+002  1.1328870E+001  9.3144216E+000 -3.2687045E+002 -6.8340840E+000  3.0048378E-001 -4.4570570E+002  6.3103119E+000  1.1690439E+001 -9.6537835E+002 -1.0220351E+002  3.0248556E+000 -4.7684928E+002  7.0157816E+001 -1.8324543E+001 -8.7975730E+002  8.2359258E+000  1.8846385E+000 -7.4843085E+002  5.3226478E+001  1.6922491E+001 -7.8774697E+002 -2.9300891E+000  2.6069888E-001 -7.3196958E+002  3.6906646E+001  3.1413520E+000 -6.5144141E+002 -2.1948247E+000 -5.2961882E-001 -7.4094328E+002  2.8084262E+001  3.4361203E+000 -5.2277780E+002 -2.7237131E+000 -7.3778410E-001 -7.3854470E+002  2.2394925E+001  2.1802187E+000 -3.8874045E+002 -4.3251032E+000 -5.1711130E-001 -7.3802259E+002  1.6912698E+001  2.5918906E+000 -2.3844997E+002 -1.4293166E+001  5.2921938E-002 -7.6600799E+002  1.0678189E+001  3.1425788E+000 -9.7065315E+001 -9.1160806E+000 -1.9724148E+000 -7.3332531E+002  2.1362668E+000  5.4249205E+000  9.6537835E+002  1.0220351E+002 -3.0248556E+000 -4.7684928E+002  7.0157816E+001  1.8324543E+001  8.7975730E+002 -8.2359257E+000 -1.8846385E+000 -7.4843085E+002  5.3226478E+001 -1.6922491E+001  7.8774697E+002  2.9300892E+000 -2.6069886E-001 -7.3196958E+002  3.6906646E+001 -3.1413519E+000  6.5144141E+002  2.1948247E+000  5.2961884E-001 -7.4094328E+002  2.8084262E+001 -3.4361202E+000  5.2277780E+002  2.7237131E+000  7.3778410E-001 -7.3854470E+002  2.2394925E+001 -2.1802186E+000  3.8874045E+002  4.3251032E+000  5.1711130E-001 -7.3802259E+002  1.6912698E+001 -2.5918905E+000  2.3844997E+002  1.4293167E+001 -5.2921945E-002 -7.6600799E+002  1.0678189E+001 -3.1425788E+000  9.7065315E+001  9.1160806E+000  1.9724148E+000 -7.3332531E+002  2.1362668E+000 -5.4249205E+000  2.9941053E+003  1.9944814E+001 -3.9841619E+001 -2.9337353E+002  6.9533111E+001  5.1204074E+001  2.6884073E+003 -2.7425365E+001 -3.0784857E+000 -4.7484725E+002  4.2694367E+001 -5.0533675E+001  2.3299812E+003 -2.7479219E+001 -1.0603919E+001 -4.3254660E+002  3.2128812E+001 -8.5149917E+000  1.9549572E+003 -1.9109683E+001 -3.6745658E+000 -4.5251926E+002  2.5602892E+001 -1.0259290E+001  1.5621599E+003 -1.5053462E+001 -3.1056277E+000 -4.4739456E+002  2.0437130E+001 -7.2722149E+000  1.1717655E+003 -7.6673693E+000 -2.0577574E+000 -4.4718003E+002  1.5460901E+001 -7.7305060E+000  7.5861508E+002  7.8290225E+000 -2.3549705E+000 -4.3948998E+002  1.1328870E+001 -9.3144216E+000  3.2687045E+002  6.8340841E+000 -3.0048378E-001 -4.4570570E+002  6.3103119E+000 -1.1690439E+001 -3.0340240E+003 -4.1154711E+001 -7.5847993E+001 -3.8134776E+002 -9.3205277E+000 -1.0993317E+001 -2.8264920E+003  9.2112757E+000  3.7453531E+000 -4.6639249E+002 -6.3877715E+000  5.0786770E+000 -2.3385418E+003  2.0779115E+001  9.7162301E+000 -4.0703540E+002 -9.9887184E+000  4.2309801E+000 -1.9567459E+003  1.3707494E+001  1.6811774E+000 -4.2294585E+002 -8.6835034E+000 -2.6308198E+000 -1.5611415E+003  1.1204277E+001  9.5646179E-001 -4.1877567E+002 -7.0369847E+000 -1.9125060E+000 -1.1733448E+003  5.0663803E+000  3.2823972E-001 -4.1942363E+002 -5.2146663E+000 -2.2397774E+000 -7.6080489E+002 -7.2544559E+000  9.8822790E-001 -4.1058539E+002 -3.4986797E+000 -1.7291359E+000 -3.2715629E+002  2.0834547E+000  2.5289394E+000 -4.2357493E+002 -1.7554415E+000 -1.8214426E+000 -3.0340240E+003 -4.1154711E+001 -7.5847993E+001 -3.8134776E+002  9.3205277E+000  1.0993317E+001 -2.8264920E+003  9.2112757E+000  3.7453531E+000 -4.6639249E+002  6.3877715E+000 -5.0786768E+000 -2.3385418E+003  2.0779115E+001  9.7162301E+000 -4.0703540E+002  9.9887184E+000 -4.2309800E+000 -1.9567459E+003  1.3707494E+001  1.6811774E+000 -4.2294585E+002  8.6835034E+000  2.6308199E+000 -1.5611415E+003  1.1204277E+001  9.5646179E-001 -4.1877567E+002  7.0369847E+000  1.9125061E+000 -1.1733448E+003  5.0663803E+000  3.2823972E-001 -4.1942363E+002  5.2146663E+000  2.2397775E+000 -7.6080489E+002 -7.2544559E+000  9.8822790E-001 -4.1058539E+002  3.4986797E+000  1.7291360E+000 -3.2715629E+002  2.0834547E+000  2.5289394E+000 -4.2357493E+002  1.7554415E+000  1.8214426E+000 -9.7748505E+002 -1.1340845E+002 -3.4165656E+001 -5.8347447E+002 -7.9068330E+000 -4.5516574E+000 -9.2479447E+002 -1.6762323E+000  5.1889157E+000 -7.4261197E+002 -2.7403167E+000  1.8772301E+000 -7.9259846E+002 -7.3106973E+000  1.1637294E+000 -6.9987027E+002 -8.6369134E+000  1.7062150E+000 -6.5178998E+002 -5.4137136E+000  1.1760809E-001 -7.0303580E+002 -8.3996712E+000 -9.1335795E-001 -5.2250102E+002 -5.0297859E+000 -5.4881203E-001 -7.0197607E+002 -6.8107110E+000 -6.8979873E-001 -3.8943092E+002 -5.7473061E+000 -3.4315610E-001 -7.0203762E+002 -5.0457081E+000 -8.0770819E-001 -2.3988440E+002 -1.3611144E+001  2.2335096E-001 -7.2625308E+002 -3.4830694E+000 -4.9987971E-001 -9.8263515E+001 -2.4064730E+000 -7.0451553E-001 -6.9879302E+002 -2.2582288E+000 -6.0322370E-001 -9.7748505E+002 -1.1340845E+002 -3.4165656E+001 -5.8347447E+002  7.9068330E+000  4.5516575E+000 -9.2479448E+002 -1.6762323E+000  5.1889158E+000 -7.4261197E+002  2.7403167E+000 -1.8772300E+000 -7.9259846E+002 -7.3106973E+000  1.1637294E+000 -6.9987027E+002  8.6369134E+000 -1.7062149E+000 -6.5178998E+002 -5.4137136E+000  1.1760809E-001 -7.0303580E+002  8.3996712E+000  9.1335808E-001 -5.2250102E+002 -5.0297859E+000 -5.4881203E-001 -7.0197607E+002  6.8107110E+000  6.8979884E-001 -3.8943092E+002 -5.7473061E+000 -3.4315610E-001 -7.0203762E+002  5.0457081E+000  8.0770826E-001 -2.3988440E+002 -1.3611144E+001  2.2335096E-001 -7.2625308E+002  3.4830694E+000  4.9987974E-001 -9.8263515E+001 -2.4064730E+000 -7.0451553E-001 -6.9879302E+002  2.2582288E+000  6.0322370E-001  9.7748505E+002  1.1340845E+002  3.4165656E+001 -5.8347447E+002 -7.9068330E+000  4.5516575E+000  9.2479448E+002  1.6762323E+000 -5.1889158E+000 -7.4261197E+002 -2.7403167E+000 -1.8772300E+000  7.9259846E+002  7.3106973E+000 -1.1637294E+000 -6.9987027E+002 -8.6369134E+000 -1.7062149E+000  6.5178998E+002  5.4137136E+000 -1.1760809E-001 -7.0303580E+002 -8.3996712E+000  9.1335808E-001  5.2250102E+002  5.0297859E+000  5.4881203E-001 -7.0197607E+002 -6.8107110E+000  6.8979884E-001  3.8943092E+002  5.7473061E+000  3.4315610E-001 -7.0203762E+002 -5.0457081E+000  8.0770826E-001  2.3988440E+002  1.3611144E+001 -2.2335096E-001 -7.2625308E+002 -3.4830695E+000  4.9987974E-001  9.8263515E+001  2.4064730E+000  7.0451553E-001 -6.9879302E+002 -2.2582288E+000  6.0322370E-001  9.7748505E+002  1.1340845E+002  3.4165656E+001 -5.8347447E+002  7.9068330E+000 -4.5516574E+000  9.2479447E+002  1.6762323E+000 -5.1889157E+000 -7.4261197E+002  2.7403167E+000  1.8772301E+000  7.9259846E+002  7.3106973E+000 -1.1637294E+000 -6.9987027E+002  8.6369134E+000  1.7062150E+000  6.5178998E+002  5.4137136E+000 -1.1760809E-001 -7.0303580E+002  8.3996712E+000 -9.1335795E-001  5.2250102E+002  5.0297859E+000  5.4881203E-001 -7.0197607E+002  6.8107110E+000 -6.8979873E-001  3.8943092E+002  5.7473061E+000  3.4315610E-001 -7.0203762E+002  5.0457081E+000 -8.0770819E-001  2.3988440E+002  1.3611144E+001 -2.2335096E-001 -7.2625308E+002  3.4830694E+000 -4.9987971E-001  9.8263515E+001  2.4064730E+000  7.0451553E-001 -6.9879302E+002  2.2582288E+000 -6.0322370E-001  3.0340240E+003  4.1154711E+001  7.5847993E+001 -3.8134776E+002 -9.3205277E+000  1.0993317E+001  2.8264920E+003 -9.2112757E+000 -3.7453531E+000 -4.6639249E+002 -6.3877715E+000 -5.0786768E+000  2.3385418E+003 -2.0779115E+001 -9.7162301E+000 -4.0703540E+002 -9.9887184E+000 -4.2309800E+000  1.9567459E+003 -1.3707494E+001 -1.6811774E+000 -4.2294585E+002 -8.6835034E+000  2.6308199E+000  1.5611415E+003 -1.1204277E+001 -9.5646179E-001 -4.1877567E+002 -7.0369847E+000  1.9125061E+000  1.1733448E+003 -5.0663802E+000 -3.2823972E-001 -4.1942363E+002 -5.2146663E+000  2.2397775E+000  7.6080489E+002  7.2544559E+000 -9.8822790E-001 -4.1058539E+002 -3.4986797E+000  1.7291360E+000  3.2715629E+002 -2.0834547E+000 -2.5289394E+000 -4.2357493E+002 -1.7554415E+000  1.8214426E+000  3.0340240E+003  4.1154711E+001  7.5847993E+001 -3.8134776E+002  9.3205277E+000 -1.0993317E+001  2.8264920E+003 -9.2112757E+000 -3.7453531E+000 -4.6639249E+002  6.3877715E+000  5.0786770E+000  2.3385418E+003 -2.0779115E+001 -9.7162301E+000 -4.0703540E+002  9.9887184E+000  4.2309801E+000  1.9567459E+003 -1.3707494E+001 -1.6811774E+000 -4.2294585E+002  8.6835034E+000 -2.6308198E+000  1.5611415E+003 -1.1204277E+001 -9.5646179E-001 -4.1877567E+002  7.0369847E+000 -1.9125060E+000  1.1733448E+003 -5.0663802E+000 -3.2823972E-001 -4.1942363E+002  5.2146663E+000 -2.2397774E+000  7.6080489E+002  7.2544559E+000 -9.8822790E-001 -4.1058539E+002  3.4986797E+000 -1.7291359E+000  3.2715629E+002 -2.0834547E+000 -2.5289394E+000 -4.2357493E+002  1.7554415E+000 -1.8214426E+000
        </DataArray>
      </PointData>
      <CellData>
      </CellData>
      <Points>
        <DataArray type="Float64" NumberOfComponents="3" format="ascii">
 -8.7546154E-032  7.6200000E-002 -8.7546154E-032 -8.7546154E-032 -8.4615218E-032 -8.7546154E-032  1.7163649E-036  1.6589031E-036  5.0800000E-002 -8.7546154E-032  7.6200000E-002  5.0800000E-002  1.5239998E-001 -4.9409093E-008 -1.2102728E-011  1.5239998E-001 -4.9409093E-008  5.0800000E-002  1.5240002E-001  7.6199951E-002  1.2102739E-011  1.5240002E-001  7.6199951E-002  5.0800000E-002 -6.1904479E-032  6.0960000E-002 -6.1904479E-032 -6.1904479E-032  4.5720000E-002 -6.1904479E-032 -6.1904479E-032  3.0480000E-002 -6.1904479E-032 -6.1904479E-032  1.5240000E-002 -6.1904479E-032  1.2136522E-036  1.1730206E-036  3.3866700E-002  1.2136522E-036  1.1730206E-036  1.6933300E-002 -6.1904479E-032  6.0960000E-002  5.0800000E-002 -6.1904479E-032  4.5720000E-002  5.0800000E-002 -6.1904479E-032  3.0480000E-002  5.0800000E-002 -6.1904479E-032  1.5240000E-002  5.0800000E-002  1.2136522E-036  7.6200000E-002  3.3866700E-002  1.2136522E-036  7.6200000E-002  1.6933300E-002  1.6933296E-002 -1.6793534E-009 -5.8404165E-010  3.3866694E-002 -4.5390434E-009 -5.6628097E-010  5.0799991E-002 -8.6424017E-009 -4.9175768E-010  6.7733289E-002 -1.3791684E-008 -4.0496762E-010  8.4666687E-002 -1.9817780E-008 -3.2326570E-010  1.0159999E-001 -2.6542498E-008 -2.4322998E-010  1.1853298E-001 -3.3788641E-008 -1.6539547E-010  1.3546698E-001 -4.1401482E-008 -8.3491380E-011  1.5239998E-001 -4.9431649E-008  3.3866700E-002  1.5239998E-001 -4.9431649E-008  1.6933300E-002  1.6933296E-002 -1.6793534E-009  5.0800001E-002  3.3866694E-002 -4.5390434E-009  5.0800001E-002  5.0799991E-002 -8.6424017E-009  5.0800000E-002  6.7733289E-002 -1.3791684E-008  5.0800000E-002  8.4666687E-002 -1.9817780E-008  5.0800000E-002  1.0159999E-001 -2.6542498E-008  5.0800000E-002  1.1853298E-001 -3.3788641E-008  5.0800000E-002  1.3546698E-001 -4.1401482E-008  5.0800000E-002  1.5239999E-001  1.5239951E-002  1.4663628E-011  1.5240000E-001  3.0479951E-002  1.3200531E-011  1.5240000E-001  4.5719951E-002 -1.3200519E-011  1.5240001E-001  6.0959951E-002 -1.4663617E-011  1.5240002E-001  7.6199951E-002  3.3866700E-002  1.5240002E-001  7.6199951E-002  1.6933300E-002  1.5239999E-001  1.5239951E-002  5.0800000E-002  1.5240000E-001  3.0479951E-002  5.0800000E-002  1.5240000E-001  4.5719951E-002  5.0800000E-002  1.5240001E-001  6.0959951E-002  5.0800000E-002  1.3546702E-001  7.6199959E-002  8.3491390E-011  1.1853302E-001  7.6199966E-002  1.6539548E-010  1.0160001E-001  7.6199973E-002  2.4322998E-010  8.4666713E-002  7.6199980E-002  3.2326571E-010  6.7733311E-002  7.6199986E-002  4.0496762E-010  5.0800009E-002  7.6199991E-002  4.9175768E-010  3.3866706E-002  7.6199995E-002  5.6628097E-010  1.6933304E-002  7.6199998E-002  5.8404166E-010  1.3546702E-001  7.6199959E-002  5.0800000E-002  1.1853302E-001  7.6199966E-002  5.0800000E-002  1.0160001E-001  7.6199973E-002  5.0800000E-002  8.4666713E-002  7.6199980E-002  5.0800000E-002  6.7733311E-002  7.6199986E-002  5.0800000E-002  5.0800009E-002  7.6199991E-002  5.0800000E-002  3.3866706E-002  7.6199995E-002  5.0799999E-002  1.6933304E-002  7.6199998E-002  5.0799999E-002  8.5818172E-037  6.0960000E-002  1.6933300E-002  8.5818172E-037  6.0960000E-002  3.3866700E-002  8.5818172E-037  4.5720000E-002  1.6933300E-002  8.5818172E-037  4.5720000E-002  3.3866700E-002  8.5818172E-037  3.0480000E-002  1.6933300E-002  8.5818172E-037  3.0480000E-002  3.3866700E-002  8.5818172E-037  1.5240000E-002  1.6933300E-002  8.5818172E-037  1.5240000E-002  3.3866700E-002  1.6933297E-002 -1.8193135E-009  1.6933300E-002  1.6933297E-002 -1.8193135E-009  3.3866700E-002  3.3866694E-002 -4.7014291E-009  1.6933300E-002  3.3866694E-002 -4.7014291E-009  3.3866700E-002  5.0799991E-002 -8.7837820E-009  1.6933300E-002  5.0799991E-002 -8.7837820E-009  3.3866700E-002  6.7733289E-002 -1.3909344E-008  1.6933300E-002  6.7733289E-002 -1.3909344E-008  3.3866700E-002  8.4666687E-002 -1.9911744E-008  1.6933300E-002  8.4666687E-002 -1.9911744E-008  3.3866700E-002  1.0159999E-001 -2.6613525E-008  1.6933300E-002  1.0159999E-001 -2.6613525E-008  3.3866700E-002  1.1853298E-001 -3.3837884E-008  1.6933300E-002  1.1853298E-001 -3.3837884E-008  3.3866700E-002  1.3546698E-001 -4.1431158E-008  1.6933300E-002  1.3546698E-001 -4.1431158E-008  3.3866700E-002  1.5239999E-001  1.5239951E-002  1.6933300E-002  1.5239999E-001  1.5239951E-002  3.3866700E-002  1.5240000E-001  3.0479951E-002  1.6933300E-002  1.5240000E-001  3.0479951E-002  3.3866700E-002  1.5240000E-001  4.5719951E-002  1.6933300E-002  1.5240000E-001  4.5719951E-002  3.3866700E-002  1.5240001E-001  6.0959951E-002  1.6933300E-002  1.5240001E-001  6.0959951E-002  3.3866700E-002  1.3546702E-001  7.6199959E-002  1.6933300E-002  1.3546702E-001  7.6199959E-002  3.3866700E-002  1.1853302E-001  7.6199966E-002  1.6933300E-002  1.1853302E-001  7.6199966E-002  3.3866700E-002  1.0160001E-001  7.6199973E-002  1.6933300E-002  1.0160001E-001  7.6199973E-002  3.3866700E-002  8.4666713E-002  7.6199980E-002  1.6933300E-002  8.4666713E-002  7.6199980E-002  3.3866700E-002  6.7733311E-002  7.6199986E-002  1.6933300E-002  6.7733311E-002  7.6199986E-002  3.3866700E-002  5.0800009E-002  7.6199991E-002  1.6933300E-002  5.0800009E-002  7.6199991E-002  3.3866700E-002  3.3866706E-002  7.6199995E-002  1.6933300E-002  3.3866706E-002  7.6199995E-002  3.3866700E-002  1.6933303E-002  7.6199998E-002  1.6933300E-002  1.6933303E-002  7.6199998E-002  3.3866700E-002  1.6933302E-002  6.0959999E-002  5.0800000E-002  3.3866704E-002  6.0959996E-002  5.0800000E-002  5.0800005E-002  6.0959992E-002  5.0800000E-002  6.7733306E-002  6.0959986E-002  5.0800000E-002  8.4666707E-002  6.0959980E-002  5.0800000E-002  1.0160001E-001  6.0959974E-002  5.0800000E-002  1.1853301E-001  6.0959966E-002  5.0800000E-002  1.3546701E-001  6.0959959E-002  5.0800000E-002  1.6933301E-002  4.5719999E-002  5.0800000E-002  3.3866701E-002  4.5719996E-002  5.0800000E-002  5.0800002E-002  4.5719992E-002  5.0800000E-002  6.7733302E-002  4.5719987E-002  5.0800000E-002  8.4666702E-002  4.5719980E-002  5.0800000E-002  1.0160000E-001  4.5719974E-002  5.0800000E-002  1.1853300E-001  4.5719966E-002  5.0800000E-002  1.3546700E-001  4.5719959E-002  5.0800000E-002  1.6933299E-002  3.0479999E-002  5.0800000E-002  3.3866699E-002  3.0479996E-002  5.0800000E-002  5.0799998E-002  3.0479992E-002  5.0800000E-002  6.7733298E-002  3.0479987E-002  5.0800000E-002  8.4666698E-002  3.0479980E-002  5.0800000E-002  1.0160000E-001  3.0479974E-002  5.0800000E-002  1.1853300E-001  3.0479966E-002  5.0800000E-002  1.3546700E-001  3.0479959E-002  5.0800000E-002  1.6933298E-002  1.5239999E-002  5.0800000E-002  3.3866696E-002  1.5239996E-002  5.0800000E-002  5.0799995E-002  1.5239992E-002  5.0800000E-002  6.7733294E-002  1.5239986E-002  5.0800000E-002  8.4666693E-002  1.5239980E-002  5.0800000E-002  1.0159999E-001  1.5239974E-002  5.0800000E-002  1.1853299E-001  1.5239966E-002  5.0800000E-002  1.3546699E-001  1.5239959E-002  5.0800000E-002  1.6933298E-002  1.5239999E-002 -3.5441434E-010  3.3866696E-002  1.5239996E-002 -3.5462478E-010  5.0799995E-002  1.5239992E-002 -3.0300204E-010  6.7733294E-002  1.5239986E-002 -2.4876534E-010  8.4666693E-002  1.5239980E-002 -1.9838022E-010  1.0159999E-001  1.5239974E-002 -1.4912097E-010  1.1853299E-001  1.5239966E-002 -9.8854520E-011  1.3546699E-001  1.5239959E-002 -4.3299670E-011  1.6933299E-002  3.0479999E-002 -1.1790742E-010  3.3866699E-002  3.0479996E-002 -1.1912592E-010  5.0799998E-002  3.0479992E-002 -1.0205253E-010  6.7733298E-002  3.0479987E-002 -8.3284334E-011  8.4666698E-002  3.0479980E-002 -6.6403304E-011  1.0160000E-001  3.0479974E-002 -4.9770087E-011  1.1853300E-001  3.0479966E-002 -3.2336128E-011  1.3546700E-001  3.0479959E-002 -1.2005214E-011  1.6933301E-002  4.5719999E-002  1.1790742E-010  3.3866701E-002  4.5719996E-002  1.1912592E-010  5.0800002E-002  4.5719992E-002  1.0205253E-010  6.7733302E-002  4.5719987E-002  8.3284337E-011  8.4666702E-002  4.5719980E-002  6.6403309E-011  1.0160000E-001  4.5719974E-002  4.9770094E-011  1.1853300E-001  4.5719966E-002  3.2336136E-011  1.3546700E-001  4.5719959E-002  1.2005224E-011  1.6933302E-002  6.0959999E-002  3.5441434E-010  3.3866704E-002  6.0959996E-002  3.5462478E-010  5.0800005E-002  6.0959992E-002  3.0300204E-010  6.7733306E-002  6.0959986E-002  2.4876534E-010  8.4666707E-002  6.0959980E-002  1.9838022E-010  1.0160001E-001  6.0959974E-002  1.4912098E-010  1.1853301E-001  6.0959966E-002  9.8854528E-011  1.3546701E-001  6.0959959E-002  4.3299680E-011  1.6933298E-002  1.5239999E-002  1.6933300E-002  3.3866696E-002  1.5239996E-002  1.6933300E-002  5.0799995E-002  1.5239991E-002  1.6933300E-002  6.7733294E-002  1.5239986E-002  1.6933300E-002  8.4666692E-002  1.5239980E-002  1.6933300E-002  1.0159999E-001  1.5239974E-002  1.6933300E-002  1.1853299E-001  1.5239966E-002  1.6933300E-002  1.3546699E-001  1.5239959E-002  1.6933300E-002  1.6933298E-002  1.5239999E-002  3.3866700E-002  3.3866696E-002  1.5239996E-002  3.3866700E-002  5.0799995E-002  1.5239991E-002  3.3866700E-002  6.7733294E-002  1.5239986E-002  3.3866700E-002  8.4666692E-002  1.5239980E-002  3.3866700E-002  1.0159999E-001  1.5239974E-002  3.3866700E-002  1.1853299E-001  1.5239966E-002  3.3866700E-002  1.3546699E-001  1.5239959E-002  3.3866700E-002  1.6933299E-002  3.0479999E-002  1.6933300E-002  3.3866699E-002  3.0479996E-002  1.6933300E-002  5.0799998E-002  3.0479992E-002  1.6933300E-002  6.7733298E-002  3.0479986E-002  1.6933300E-002  8.4666698E-002  3.0479980E-002  1.6933300E-002  1.0160000E-001  3.0479974E-002  1.6933300E-002  1.1853300E-001  3.0479966E-002  1.6933300E-002  1.3546700E-001  3.0479959E-002  1.6933300E-002  1.6933299E-002  3.0479999E-002  3.3866700E-002  3.3866699E-002  3.0479996E-002  3.3866700E-002  5.0799998E-002  3.0479992E-002  3.3866700E-002  6.7733298E-002  3.0479986E-002  3.3866700E-002  8.4666698E-002  3.0479980E-002  3.3866700E-002  1.0160000E-001  3.0479974E-002  3.3866700E-002  1.1853300E-001  3.0479966E-002  3.3866700E-002  1.3546700E-001  3.0479959E-002  3.3866700E-002  1.6933301E-002  4.5719999E-002  1.6933300E-002  3.3866701E-002  4.5719996E-002  1.6933300E-002  5.0800002E-002  4.5719992E-002  1.6933300E-002  6.7733302E-002  4.5719986E-002  1.6933300E-002  8.4666702E-002  4.5719980E-002  1.6933300E-002  1.0160000E-001  4.5719974E-002  1.6933300E-002  1.1853300E-001  4.5719966E-002  1.6933300E-002  1.3546700E-001  4.5719959E-002  1.6933300E-002  1.6933301E-002  4.5719999E-002  3.3866700E-002  3.3866701E-002  4.5719996E-002  3.3866700E-002  5.0800002E-002  4.5719992E-002  3.3866700E-002  6.7733302E-002  4.5719986E-002  3.3866700E-002  8.4666702E-002  4.5719980E-002  3.3866700E-002  1.0160000E-001  4.5719974E-002  3.3866700E-002  1.1853300E-001  4.5719966E-002  3.3866700E-002  1.3546700E-001  4.5719959E-002  3.3866700E-002  1.6933302E-002  6.0959999E-002  1.6933300E-002  3.3866704E-002  6.0959996E-002  1.6933300E-002  5.0800005E-002  6.0959991E-002  1.6933300E-002  6.7733306E-002  6.0959986E-002  1.6933300E-002  8.4666708E-002  6.0959980E-002  1.6933300E-002  1.0160001E-001  6.0959974E-002  1.6933300E-002  1.1853301E-001  6.0959966E-002  1.6933300E-002  1.3546701E-001  6.0959959E-002  1.6933300E-002  1.6933302E-002  6.0959999E-002  3.3866700E-002  3.3866704E-002  6.0959996E-002  3.3866700E-002  5.0800005E-002  6.0959991E-002  3.3866700E-002  6.7733306E-002  6.0959986E-002  3.3866700E-002  8.4666708E-002  6.0959980E-002  3.3866700E-002  1.0160001E-001  6.0959974E-002  3.3866700E-002  1.1853301E-001  6.0959966E-002  3.3866700E-002  1.3546701E-001  6.0959959E-002  3.3866700E-002
        </DataArray>
      </Points>
      <Cells>
        <DataArray type="Int32" Name="connectivity" format="ascii">
 1 11 70 13 20 144 176 72 20 144 176 72 21 145 177 74 21 145 177 74 22 146 178 76 22 146 178 76 23 147 179 78 23 147 179 78 24 148 180 80 24 148 180 80 25 149 181 82 25 149 181 82 26 150 182 84 26 150 182 84 27 151 183 86 27 151 183 86 4 38 88 29 13 70 71 12 72 176 184 73 72 176 184 73 74 177 185 75 74 177 185 75 76 178 186 77 76 178 186 77 78 179 187 79 78 179 187 79 80 180 188 81 80 180 188 81 82 181 189 83 82 181 189 83 84 182 190 85 84 182 190 85 86 183 191 87 86 183 191 87 29 88 89 28 12 71 17 2 73 184 136 30 73 184 136 30 75 185 137 31 75 185 137 31 77 186 138 32 77 186 138 32 79 187 139 33 79 187 139 33 81 188 140 34 81 188 140 34 83 189 141 35 83 189 141 35 85 190 142 36 85 190 142 36 87 191 143 37 87 191 143 37 28 89 44 5 11 10 68 70 144 152 192 176 144 152 192 176 145 153 193 177 145 153 193 177 146 154 194 178 146 154 194 178 147 155 195 179 147 155 195 179 148 156 196 180 148 156 196 180 149 157 197 181 149 157 197 181 150 158 198 182 150 158 198 182 151 159 199 183 151 159 199 183 38 39 90 88 70 68 69 71 176 192 200 184 176 192 200 184 177 193 201 185 177 193 201 185 178 194 202 186 178 194 202 186 179 195 203 187 179 195 203 187 180 196 204 188 180 196 204 188 181 197 205 189 181 197 205 189 182 198 206 190 182 198 206 190 183 199 207 191 183 199 207 191 88 90 91 89 71 69 16 17 184 200 128 136 184 200 128 136 185 201 129 137 185 201 129 137 186 202 130 138 186 202 130 138 187 203 131 139 187 203 131 139 188 204 132 140 188 204 132 140 189 205 133 141 189 205 133 141 190 206 134 142 190 206 134 142 191 207 135 143 191 207 135 143 89 91 45 44 10 9 66 68 152 160 208 192 152 160 208 192 153 161 209 193 153 161 209 193 154 162 210 194 154 162 210 194 155 163 211 195 155 163 211 195 156 164 212 196 156 164 212 196 157 165 213 197 157 165 213 197 158 166 214 198 158 166 214 198 159 167 215 199 159 167 215 199 39 40 92 90 68 66 67 69 192 208 216 200 192 208 216 200 193 209 217 201 193 209 217 201 194 210 218 202 194 210 218 202 195 211 219 203 195 211 219 203 196 212 220 204 196 212 220 204 197 213 221 205 197 213 221 205 198 214 222 206 198 214 222 206 199 215 223 207 199 215 223 207 90 92 93 91 69 67 15 16 200 216 120 128 200 216 120 128 201 217 121 129 201 217 121 129 202 218 122 130 202 218 122 130 203 219 123 131 203 219 123 131 204 220 124 132 204 220 124 132 205 221 125 133 205 221 125 133 206 222 126 134 206 222 126 134 207 223 127 135 207 223 127 135 91 93 46 45 9 8 64 66 160 168 224 208 160 168 224 208 161 169 225 209 161 169 225 209 162 170 226 210 162 170 226 210 163 171 227 211 163 171 227 211 164 172 228 212 164 172 228 212 165 173 229 213 165 173 229 213 166 174 230 214 166 174 230 214 167 175 231 215 167 175 231 215 40 41 94 92 66 64 65 67 208 224 232 216 208 224 232 216 209 225 233 217 209 225 233 217 210 226 234 218 210 226 234 218 211 227 235 219 211 227 235 219 212 228 236 220 212 228 236 220 213 229 237 221 213 229 237 221 214 230 238 222 214 230 238 222 215 231 239 223 215 231 239 223 92 94 95 93 67 65 14 15 216 232 112 120 216 232 112 120 217 233 113 121 217 233 113 121 218 234 114 122 218 234 114 122 219 235 115 123 219 235 115 123 220 236 116 124 220 236 116 124 221 237 117 125 221 237 117 125 222 238 118 126 222 238 118 126 223 239 119 127 223 239 119 127 93 95 47 46 8 0 19 64 168 55 110 224 168 55 110 224 169 54 108 225 169 54 108 225 170 53 106 226 170 53 106 226 171 52 104 227 171 52 104 227 172 51 102 228 172 51 102 228 173 50 100 229 173 50 100 229 174 49 98 230 174 49 98 230 175 48 96 231 175 48 96 231 41 6 43 94 64 19 18 65 224 110 111 232 224 110 111 232 225 108 109 233 225 108 109 233 226 106 107 234 226 106 107 234 227 104 105 235 227 104 105 235 228 102 103 236 228 102 103 236 229 100 101 237 229 100 101 237 230 98 99 238 230 98 99 238 231 96 97 239 231 96 97 239 94 43 42 95 65 18 3 14 232 111 63 112 232 111 63 112 233 109 62 113 233 109 62 113 234 107 61 114 234 107 61 114 235 105 60 115 235 105 60 115 236 103 59 116 236 103 59 116 237 101 58 117 237 101 58 117 238 99 57 118 238 99 57 118 239 97 56 119 239 97 56 119 95 42 7 47 64 19 0 8 65 18 19 64 14 3 18 65 66 64 8 9 67 65 64 66 67 15 14 65 10 68 66 9 68 69 67 66 69 16 15 67 11 70 68 10 70 71 69 68 71 17 16 69 1 13 70 11 12 71 70 13 2 17 71 12 72 13 1 20 12 13 72 73 2 12 73 30 72 20 21 74 73 72 74 75 30 73 75 31 74 21 22 76 75 74 76 77 31 75 77 32 76 22 23 78 77 76 78 79 32 77 79 33 78 23 24 80 79 78 80 81 33 79 81 34 80 24 25 82 81 80 82 83 34 81 83 35 82 25 26 84 83 82 84 85 35 83 85 36 84 26 27 86 85 84 86 87 36 85 87 37 86 27 4 29 87 86 29 28 37 87 28 5 29 4 38 88 28 29 88 89 5 28 89 44 88 38 39 90 89 88 90 91 44 89 91 45 90 39 40 92 91 90 92 93 45 91 93 46 92 40 41 94 93 92 94 95 46 93 95 47 94 41 6 43 95 94 43 42 47 95 42 7 6 48 96 43 43 96 97 42 42 97 56 7 48 49 98 96 96 98 99 97 97 99 57 56 49 50 100 98 98 100 101 99 99 101 58 57 50 51 102 100 100 102 103 101 103 59 58 101 52 104 102 51 104 105 103 102 105 60 59 103 53 106 104 52 106 107 105 104 107 61 60 105 54 108 106 53 108 109 107 106 109 62 61 107 55 110 108 54 110 111 109 108 111 63 62 109 0 19 110 55 19 18 111 110 18 3 63 111 3 14 112 63 63 112 113 62 62 113 114 61 61 114 115 60 60 115 116 59 59 116 117 58 58 117 118 57 57 118 119 56 56 119 47 7 14 15 120 112 112 120 121 113 113 121 122 114 114 122 123 115 115 123 124 116 116 124 125 117 117 125 126 118 118 126 127 119 119 127 46 47 15 16 128 120 120 128 129 121 121 129 130 122 122 130 131 123 123 131 132 124 124 132 133 125 125 133 134 126 126 134 135 127 127 135 45 46 16 17 136 128 128 136 137 129 129 137 138 130 130 138 139 131 131 139 140 132 132 140 141 133 133 141 142 134 134 142 143 135 135 143 44 45 17 2 30 136 136 30 31 137 137 31 32 138 138 32 33 139 139 33 34 140 140 34 35 141 141 35 36 142 142 36 37 143 143 37 5 44 1 11 144 20 20 144 145 21 21 145 146 22 22 146 147 23 23 147 148 24 24 148 149 25 25 149 150 26 26 150 151 27 27 151 38 4 11 10 152 144 144 152 153 145 145 153 154 146 146 154 155 147 147 155 156 148 148 156 157 149 149 157 158 150 150 158 159 151 151 159 39 38 10 9 160 152 152 160 161 153 153 161 162 154 154 162 163 155 155 163 164 156 156 164 165 157 157 165 166 158 158 166 167 159 159 167 40 39 9 8 168 160 160 168 169 161 161 169 170 162 162 170 171 163 163 171 172 164 164 172 173 165 165 173 174 166 166 174 175 167 167 175 41 40 8 0 55 168 168 55 54 169 169 54 53 170 170 53 52 171 171 52 51 172 172 51 50 173 173 50 49 174 174 49 48 175 175 48 6 41
        </DataArray>
        <DataArray type="Int32" Name="offsets" format="ascii">
 8 16 24 32 40 48 56 64 72 80 88 96 104 112 120 128 136 144 152 160 168 176 184 192 200 208 216 224 232 240 248 256 264 272 280 288 296 304 312 320 328 336 344 352 360 368 376 384 392 400 408 416 424 432 440 448 456 464 472 480 488 496 504 512 520 528 536 544 552 560 568 576 584 592 600 608 616 624 632 640 648 656 664 672 680 688 696 704 712 720 728 736 744 752 760 768 776 784 792 800 808 816 824 832 840 848 856 864 872 880 888 896 904 912 920 928 936 944 952 960 968 976 984 992 1000 1008 1016 1024 1032 1040 1048 1056 1064 1072 1080 1084 1088 1092 1096 1100 1104 1108 1112 1116 1120 1124 1128 1132 1136 1140 1144 1148 1152 1156 1160 1164 1168 1172 1176 1180 1184 1188 1192 1196 1200 1204 1208 1212 1216 1220 1224 1228 1232 1236 1240 1244 1248 1252 1256 1260 1264 1268 1272 1276 1280 1284 1288 1292 1296 1300 1304 1308 1312 1316 1320 1324 1328 1332 1336 1340 1344 1348 1352 1356 1360 1364 1368 1372 1376 1380 1384 1388 1392 1396 1400 1404 1408 1412 1416 1420 1424 1428 1432 1436 1440 1444 1448 1452 1456 1460 1464 1468 1472 1476 1480 1484 1488 1492 1496 1500 1504 1508 1512 1516 1520 1524 1528 1532 1536 1540 1544 1548 1552 1556 1560 1564 1568 1572 1576 1580 1584 1588 1592 1596 1600 1604 1608 1612 1616 1620 1624 1628 1632 1636 1640 1644 1648 1652 1656 1660 1664 1668 1672 1676 1680 1684 1688 1692 1696 1700 1704 1708 1712 1716 1720 1724 1728 1732 1736 1740 1744 1748 1752 1756 1760 1764 1768 1772 1776
        </DataArray>
        <DataArray type="Int32" Name="types" FORMAT="ascii">
 12 12 12 12 12 12 12 12 12 12 12 12 12 12 12 12 12 12 12 12 12 12 12 12 12 12 12 12 12 12 12 12 12 12 12 12 12 12 12 12 12 12 12 12 12 12 12 12 12 12 12 12 12 12 12 12 12 12 12 12 12 12 12 12 12 12 12 12 12 12 12 12 12 12 12 12 12 12 12 12 12 12 12 12 12 12 12 12 12 12 12 12 12 12 12 12 12 12 12 12 12 12 12 12 12 12 12 12 12 12 12 12 12 12 12 12 12 12 12 12 12 12 12 12 12 12 12 12 12 12 12 12 12 12 12 9 9 9 9 9 9 9 9 9 9 9 9 9 9 9 9 9 9 9 9 9 9 9 9 9 9 9 9 9 9 9 9 9 9 9 9 9 9 9 9 9 9 9 9 9 9 9 9 9 9 9 9 9 9 9 9 9 9 9 9 9 9 9 9 9 9 9 9 9 9 9 9 9 9 9 9 9 9 9 9 9 9 9 9 9 9 9 9 9 9 9 9 9 9 9 9 9 9 9 9 9 9 9 9 9 9 9 9 9 9 9 9 9 9 9 9 9 9 9 9 9 9 9 9 9 9 9 9 9 9 9 9 9 9 9 9 9 9 9 9 9 9 9 9 9 9 9 9 9 9 9 9 9 9 9 9 9 9 9 9 9 9 9 9 9 9 9 9 9 9 9 9 9 9
        </DataArray>
      </Cells>
    </Piece>
  </UnstructuredGrid>
</VTKFile>
